9257 5836 5996
7636 6249 6213
8577 6551 5535
8055 4772 6669
9262 6116 5881
9341 6173 4656
7474 5495 6732
8868 6253 6206
7985 6328 6052
9729 5238 4584
6966 6558 5400
7625 5214 6763
8670 5893 6398
9715 4754 4717
9337 5886 5848
